(set-logic HORN)
(declare-fun state (Int Int Int (Array Int Int) Int (Array Int Int) Int Int Int Int Int Int Int (Array Int Int) (Array Int Int) (Array Int Int) (Array Int Int) (Array Int Int) (Array Int Int) Int Int Int Int Int Int (Array Int Int) (Array Int Int) (Array Int Int) (Array Int Int) (Array Int Int) Bool Bool Bool Bool Int Int Int) Bool)
(assert (forall ((|D_15| Int) (|.y.35| Int) (|.y.36| Int) (|E_15| (Array Int Int)) (|H_15| Int) (|I_15| (Array Int Int)) (|G_15| Int) (|A_16| Int) (|.y.37| Int) (|.y.38| Int) (|.y.39| Int) (|.y.40| Int) (|.y.41| Int) (|.y.42| (Array Int Int)) (|.y.43| (Array Int Int)) (|.y.44| (Array Int Int)) (|.y.45| (Array Int Int)) (|.y.46| (Array Int Int)) (|.y.47| (Array Int Int)) (|.y.48| Int) (|.y.49| Int) (|.y.50| Int) (|.y.51| Int) (|.y.52| Int) (|.y.53| Int) (|.y.54| (Array Int Int)) (|.y.55| (Array Int Int)) (|.y.56| (Array Int Int)) (|.y.57| (Array Int Int)) (|.y.58| (Array Int Int)) (|.loc.59| Bool) (|.loc.60| Bool) (|.loc.61| Bool) (|.loc.62| Bool) (|J_15| Int) (|H_0| Int) (|F_15| Int) (|.loc.94| Bool) (|.loc.96| Bool) (|.loc.95| Bool) (|.loc.93| Bool) (|.y.69| Int) (|.y.63| Int) (|.y.66| (Array Int Int)) (|.y.67| Int) (|.y.68| (Array Int Int)) (|.y.70| Int) (|.y.76| (Array Int Int)) (|.y.82| Int) (|.y.83| Int) (|.y.88| (Array Int Int)) (|.y.84| Int) (|.y.89| (Array Int Int)) (|.y.85| Int) (|.y.90| (Array Int Int)) (|.y.86| Int) (|.y.91| (Array Int Int)) (|.y.92| (Array Int Int)) (|.y.87| Int) (|.y.64| Int) (|.y.71| Int) (|.y.72| Int) (|.y.73| Int) (|.y.74| Int) (|.y.75| Int) (|.y.65| Int) (|.y.81| (Array Int Int)) (|.y.80| (Array Int Int)) (|.y.79| (Array Int Int)) (|.y.78| (Array Int Int)) (|.y.77| (Array Int Int)) (|.xtv.1| Int) (|.xtv.2| Int) (|.xtv.3| Int)) (=> (and (and (and (not .loc.59) (not .loc.60)) (not .loc.61)) (not .loc.62)) (state |D_15| |.y.35| |.y.36| |E_15| |H_15| |I_15| |G_15| |A_16| |.y.37| |.y.38| |.y.39| |.y.40| |.y.41| |.y.42| |.y.43| |.y.44| |.y.45| |.y.46| |.y.47| |.y.48| |.y.49| |.y.50| |.y.51| |.y.52| |.y.53| |.y.54| |.y.55| |.y.56| |.y.57| |.y.58| |.loc.59| |.loc.60| |.loc.61| |.loc.62| |J_15| |H_0| |F_15|))))
(assert (forall ((|D_15| Int) (|.y.35| Int) (|.y.36| Int) (|E_15| (Array Int Int)) (|H_15| Int) (|I_15| (Array Int Int)) (|G_15| Int) (|A_16| Int) (|.y.37| Int) (|.y.38| Int) (|.y.39| Int) (|.y.40| Int) (|.y.41| Int) (|.y.42| (Array Int Int)) (|.y.43| (Array Int Int)) (|.y.44| (Array Int Int)) (|.y.45| (Array Int Int)) (|.y.46| (Array Int Int)) (|.y.47| (Array Int Int)) (|.y.48| Int) (|.y.49| Int) (|.y.50| Int) (|.y.51| Int) (|.y.52| Int) (|.y.53| Int) (|.y.54| (Array Int Int)) (|.y.55| (Array Int Int)) (|.y.56| (Array Int Int)) (|.y.57| (Array Int Int)) (|.y.58| (Array Int Int)) (|.loc.59| Bool) (|.loc.60| Bool) (|.loc.61| Bool) (|.loc.62| Bool) (|J_15| Int) (|H_0| Int) (|F_15| Int) (|.loc.94| Bool) (|.loc.96| Bool) (|.loc.95| Bool) (|.loc.93| Bool) (|.y.69| Int) (|.y.63| Int) (|.y.66| (Array Int Int)) (|.y.67| Int) (|.y.68| (Array Int Int)) (|.y.70| Int) (|.y.76| (Array Int Int)) (|.y.82| Int) (|.y.83| Int) (|.y.88| (Array Int Int)) (|.y.84| Int) (|.y.89| (Array Int Int)) (|.y.85| Int) (|.y.90| (Array Int Int)) (|.y.86| Int) (|.y.91| (Array Int Int)) (|.y.92| (Array Int Int)) (|.y.87| Int) (|.y.64| Int) (|.y.71| Int) (|.y.72| Int) (|.y.73| Int) (|.y.74| Int) (|.y.75| Int) (|.y.65| Int) (|.y.81| (Array Int Int)) (|.y.80| (Array Int Int)) (|.y.79| (Array Int Int)) (|.y.78| (Array Int Int)) (|.y.77| (Array Int Int)) (|.xtv.1| Int) (|.xtv.2| Int) (|.xtv.3| Int)) (=> (and (state |D_15| |.y.35| |.y.36| |E_15| |H_15| |I_15| |G_15| |A_16| |.y.37| |.y.38| |.y.39| |.y.40| |.y.41| |.y.42| |.y.43| |.y.44| |.y.45| |.y.46| |.y.47| |.y.48| |.y.49| |.y.50| |.y.51| |.y.52| |.y.53| |.y.54| |.y.55| |.y.56| |.y.57| |.y.58| |.loc.59| |.loc.60| |.loc.61| |.loc.62| |J_15| |H_0| |F_15|) (let ((.def_47 (not .loc.59))) (let ((.def_48 (not .loc.60))) (let ((.def_50 (not .loc.61))) (let ((.def_52 (not .loc.62))) (let ((.def_55 (not .loc.94))) (let ((.def_59 (not .loc.95))) (let ((.def_63 (= (select E_15 F_15) (select I_15 J_15)))) (let ((.def_66 (<= D_15 0))) (let ((.def_68 (not (<= F_15 0)))) (let ((.def_84 (<= H_15 0))) (let ((.def_85 (not .def_84))) (let ((.def_90 (not (<= J_15 0)))) (let ((.def_91 (or .def_84 .def_90))) (let ((.def_93 (and (or .def_66 .def_68) (and (and (not (<= A_16 G_15)) (and (not .def_66) (and (and (= (+ D_15 (+ G_15 (* (- 1) F_15))) 0) (= (+ H_15 (+ G_15 (* (- 1) J_15))) 0)) .def_85))) .def_91)))) (let ((.def_101 (and .loc.59 .loc.60))) (let ((.def_103 (not .loc.93))) (let ((.def_107 (= .y.69 0))) (let ((.def_109 (<= .y.48 G_15))) (let ((.def_112 (= D_15 .y.63))) (let ((.def_115 (= E_15 .y.66))) (let ((.def_118 (= A_16 .y.67))) (let ((.def_121 (= .y.42 .y.68))) (let ((.def_124 (= .y.48 .y.70))) (let ((.def_137 (= (+ G_15 (* (- 1) .y.69)) (- 1)))) (let ((.def_139 (= H_15 .y.67))) (let ((.def_141 (= I_15 .y.68))) (let ((.def_143 (= A_16 .y.70))) (let ((.def_161 (not .loc.96))) (let ((.def_164 (<= .y.49 G_15))) (let ((.def_167 (= .y.49 .y.82))) (let ((.def_171 (and .loc.59 .def_85))) (let ((.def_172 (and .loc.60 .def_171))) (let ((.def_187 (= .y.76 (store .y.42 J_15 (select I_15 F_15))))) (let ((.def_189 (<= A_16 0))) (let ((.def_190 (not .def_189))) (let ((.def_194 (= (+ G_15 (+ A_16 (* (- 1) J_15))) 0))) (let ((.def_197 (= (+ H_15 (+ G_15 (* (- 1) F_15))) 0))) (let ((.def_200 (or .def_90 .def_189))) (let ((.def_202 (or .def_68 .def_84))) (let ((.def_204 (= .y.48 .y.82))) (let ((.def_223 (<= .y.50 G_15))) (let ((.def_226 (= .y.50 .y.83))) (let ((.def_229 (= .y.54 .y.88))) (let ((.def_233 (and .loc.60 .def_85))) (let ((.def_256 (= .y.49 .y.83))) (let ((.def_277 (<= .y.51 G_15))) (let ((.def_280 (= .y.51 .y.84))) (let ((.def_283 (= .y.55 .y.89))) (let ((.def_311 (= .y.50 .y.84))) (let ((.def_333 (<= .y.52 G_15))) (let ((.def_336 (= .y.52 .y.85))) (let ((.def_339 (= .y.56 .y.90))) (let ((.def_370 (= .y.51 .y.85))) (let ((.def_397 (<= .y.53 G_15))) (let ((.def_401 (= .y.57 .y.91))) (let ((.def_432 (= .y.52 .y.86))) (let ((.def_463 (<= .y.41 .y.36))) (let ((.def_575 (<= .y.35 0))) (or (or (or (or (or (or (or (or (or (or (or (or (or (or (and (and (and .def_55 .loc.96) .def_59) (or (or (and (and .def_50 (and .def_48 (and .def_47 (and .loc.62 (and (not .def_63) .def_93))))) .loc.93) (and (and (and (and (and (and (and (and .def_52 (and (and .loc.61 .def_101) .def_103)) .def_107) .def_109) .def_112) .def_115) .def_118) .def_121) .def_124)) (and (and (and (and (and .def_115 (and .def_112 (and .def_103 (and .def_50 (and .def_48 (and .def_47 (and .loc.62 (and .def_63 .def_93)))))))) .def_137) .def_139) .def_141) .def_143))) (and (and (and (= .y.54 .y.76) (and (and .def_124 (and .def_121 (and .def_118 (and .def_115 (and .def_112 (and .def_107 (and .def_52 (and .loc.95 (and .loc.94 (and .loc.93 (and .def_47 (and .loc.60 .loc.61)))))))))))) .def_161)) .def_164) .def_167)) (and (and (and (and (not .def_109) (and (and (and (and (and .def_161 (and .def_143 (and .def_141 (and .def_139 (and .def_137 (and .def_115 (and .def_112 (and .def_52 (and .loc.95 (and .loc.94 (and .loc.93 (and .loc.61 .def_172)))))))))))) .def_187) .def_190) .def_194) .def_197)) .def_200) .def_202) .def_204)) (and (and (and (and (= .y.55 .y.76) (and .def_167 (and .def_161 (and .def_124 (and .def_121 (and .def_118 (and .def_115 (and .def_112 (and .def_107 (and .def_52 (and .def_103 (and .loc.95 (and .loc.94 (and .def_48 (and .loc.59 .loc.61))))))))))))))) .def_223) .def_226) .def_229)) (and (and (not .def_164) (and .def_229 (and .def_204 (and .def_202 (and .def_200 (and .def_197 (and .def_194 (and .def_190 (and .def_187 (and .def_161 (and .def_143 (and .def_141 (and .def_139 (and .def_137 (and .def_115 (and .def_112 (and .def_52 (and .def_103 (and .loc.95 (and .loc.94 (and .def_47 (and .loc.61 .def_233)))))))))))))))))))))) .def_256)) (and (and (and (and (= .y.56 .y.76) (and .def_229 (and .def_226 (and .def_167 (and .def_161 (and .def_124 (and .def_121 (and .def_118 (and .def_115 (and .def_112 (and .def_107 (and .def_52 (and .def_55 (and .loc.95 (and .loc.93 (and .def_48 (and .loc.61 .def_47))))))))))))))))) .def_277) .def_280) .def_283)) (and (and (not .def_223) (and .def_283 (and .def_256 (and .def_229 (and .def_204 (and .def_202 (and .def_200 (and .def_197 (and .def_194 (and .def_190 (and .def_187 (and .def_161 (and .def_143 (and .def_141 (and .def_139 (and .def_137 (and .def_115 (and .def_112 (and .def_52 (and .def_55 (and .loc.95 (and .loc.93 (and .def_48 (and .loc.61 .def_171)))))))))))))))))))))))) .def_311)) (and (and (and (and (= .y.57 .y.76) (and .def_283 (and .def_280 (and .def_229 (and .def_226 (and .def_167 (and .def_161 (and .def_124 (and .def_121 (and .def_118 (and .def_115 (and .def_112 (and .def_107 (and .def_52 (and .def_103 (and .def_55 (and .loc.95 (and .def_50 .def_101)))))))))))))))))) .def_333) .def_336) .def_339)) (and (and (not .def_277) (and .def_339 (and .def_311 (and .def_283 (and .def_256 (and .def_229 (and .def_204 (and .def_202 (and .def_200 (and .def_197 (and .def_194 (and .def_190 (and .def_187 (and .def_161 (and .def_143 (and .def_141 (and .def_139 (and .def_137 (and .def_115 (and .def_112 (and .def_52 (and .def_103 (and .def_55 (and .loc.95 (and .def_48 (and .def_47 (and .loc.61 .def_85))))))))))))))))))))))))))) .def_370)) (and (and (= .y.53 .y.86) (and (and (= .y.58 .y.76) (and .def_339 (and .def_336 (and .def_283 (and .def_280 (and .def_229 (and .def_226 (and .def_167 (and .def_161 (and .def_124 (and .def_121 (and .def_118 (and .def_115 (and .def_112 (and .def_107 (and .def_52 (and .def_59 (and .loc.94 (and .loc.93 (and .def_50 (and .loc.60 .def_47))))))))))))))))))))) .def_397)) .def_401)) (and (and (not .def_333) (and .def_401 (and .def_370 (and .def_339 (and .def_311 (and .def_283 (and .def_256 (and .def_229 (and .def_204 (and .def_202 (and .def_200 (and .def_197 (and .def_194 (and .def_190 (and .def_187 (and .def_161 (and .def_143 (and .def_141 (and .def_139 (and .def_137 (and .def_115 (and .def_112 (and .def_52 (and .def_59 (and .loc.94 (and .loc.93 (and .def_50 .def_172))))))))))))))))))))))))))) .def_432)) (and (= .y.46 .y.92) (and (= .y.45 .y.91) (and (= .y.44 .y.90) (and (= .y.43 .y.89) (and (= .y.42 .y.88) (and (= .y.41 .y.87) (and (= .y.40 .y.86) (and (= .y.39 .y.85) (and (= .y.38 .y.84) (and (= .y.37 .y.83) (and (= A_16 .y.82) (and (= G_15 .y.70) (and (= .y.35 .y.63) (and (and (= .y.47 .y.76) (and .def_161 (and .def_141 (and .def_139 (and .def_115 (and .def_107 (and .def_52 (and .def_103 (and .def_59 (and .loc.94 (and .def_50 (and .loc.59 .def_48)))))))))))) .def_463))))))))))))))) (and (= .y.58 .y.92) (and (= .y.53 .y.87) (and (not .def_397) (and .def_432 (and .def_401 (and .def_370 (and .def_339 (and .def_311 (and .def_283 (and .def_256 (and .def_229 (and .def_204 (and .def_202 (and .def_200 (and .def_197 (and .def_194 (and .def_190 (and .def_187 (and .def_161 (and .def_143 (and .def_141 (and .def_139 (and .def_137 (and .def_115 (and .def_112 (and .def_52 (and .def_103 (and .def_59 (and .loc.94 (and .def_50 (and .def_47 .def_233)))))))))))))))))))))))))))))))) (and (not (<= .y.64 0)) (and (not (<= .y.67 0)) (and (not (<= .y.69 0)) (and (not (<= .y.70 0)) (and (not (<= .y.71 0)) (and (not (<= .y.72 0)) (and (not (<= .y.73 0)) (and (not (<= .y.74 0)) (and (not (<= .y.75 0)) (and (= .y.65 0) (and .def_161 (and .def_112 (and .def_52 (and .def_59 (and .def_55 (and (and (and .def_47 .def_48) .def_50) .loc.93))))))))))))))))) (and (= .y.47 .y.81) (and (= .y.46 .y.80) (and (= .y.45 .y.79) (and (= .y.44 .y.78) (and (= .y.43 .y.77) (and (= .y.42 .y.76) (and (= .y.41 .y.75) (and (= .y.40 .y.74) (and (= .y.39 .y.73) (and (= .y.38 .y.72) (and (= .y.37 .y.71) (and (= G_15 .y.69) (and (= .y.35 .y.64) (and (or .def_68 .def_575) (and (not .def_463) (and (= (+ .y.35 (+ .y.36 (* (- 1) F_15))) 0) (and (= (+ .y.36 (+ H_15 (* (- 1) J_15))) 0) (and (not .def_575) (and (= (+ .y.36 (* (- 1) .y.65)) (- 1)) (and (= .y.68 (store I_15 J_15 H_0)) (and (= .y.66 (store E_15 F_15 H_0)) (and .def_161 (and .def_143 (and .def_139 (and .def_112 (and .def_52 (and .def_59 (and .def_55 (and .loc.93 (and .def_50 (and .def_48 (and .loc.59 (and .def_85 .def_91))))))))))))))))))))))))))))))))))))))))))))))))))))))))))))))))))))))))))))))))))))))))))))) (state |.y.63| |.y.64| |.y.65| |.y.66| |.y.67| |.y.68| |.y.69| |.y.70| |.y.71| |.y.72| |.y.73| |.y.74| |.y.75| |.y.76| |.y.77| |.y.78| |.y.79| |.y.80| |.y.81| |.y.82| |.y.83| |.y.84| |.y.85| |.y.86| |.y.87| |.y.88| |.y.89| |.y.90| |.y.91| |.y.92| |.loc.93| |.loc.94| |.loc.95| |.loc.96| |.xtv.1| |.xtv.2| |.xtv.3|))))
(assert (forall ((|D_15| Int) (|.y.35| Int) (|.y.36| Int) (|E_15| (Array Int Int)) (|H_15| Int) (|I_15| (Array Int Int)) (|G_15| Int) (|A_16| Int) (|.y.37| Int) (|.y.38| Int) (|.y.39| Int) (|.y.40| Int) (|.y.41| Int) (|.y.42| (Array Int Int)) (|.y.43| (Array Int Int)) (|.y.44| (Array Int Int)) (|.y.45| (Array Int Int)) (|.y.46| (Array Int Int)) (|.y.47| (Array Int Int)) (|.y.48| Int) (|.y.49| Int) (|.y.50| Int) (|.y.51| Int) (|.y.52| Int) (|.y.53| Int) (|.y.54| (Array Int Int)) (|.y.55| (Array Int Int)) (|.y.56| (Array Int Int)) (|.y.57| (Array Int Int)) (|.y.58| (Array Int Int)) (|.loc.59| Bool) (|.loc.60| Bool) (|.loc.61| Bool) (|.loc.62| Bool) (|J_15| Int) (|H_0| Int) (|F_15| Int) (|.loc.94| Bool) (|.loc.96| Bool) (|.loc.95| Bool) (|.loc.93| Bool) (|.y.69| Int) (|.y.63| Int) (|.y.66| (Array Int Int)) (|.y.67| Int) (|.y.68| (Array Int Int)) (|.y.70| Int) (|.y.76| (Array Int Int)) (|.y.82| Int) (|.y.83| Int) (|.y.88| (Array Int Int)) (|.y.84| Int) (|.y.89| (Array Int Int)) (|.y.85| Int) (|.y.90| (Array Int Int)) (|.y.86| Int) (|.y.91| (Array Int Int)) (|.y.92| (Array Int Int)) (|.y.87| Int) (|.y.64| Int) (|.y.71| Int) (|.y.72| Int) (|.y.73| Int) (|.y.74| Int) (|.y.75| Int) (|.y.65| Int) (|.y.81| (Array Int Int)) (|.y.80| (Array Int Int)) (|.y.79| (Array Int Int)) (|.y.78| (Array Int Int)) (|.y.77| (Array Int Int)) (|.xtv.1| Int) (|.xtv.2| Int) (|.xtv.3| Int)) (=> (state |D_15| |.y.35| |.y.36| |E_15| |H_15| |I_15| |G_15| |A_16| |.y.37| |.y.38| |.y.39| |.y.40| |.y.41| |.y.42| |.y.43| |.y.44| |.y.45| |.y.46| |.y.47| |.y.48| |.y.49| |.y.50| |.y.51| |.y.52| |.y.53| |.y.54| |.y.55| |.y.56| |.y.57| |.y.58| |.loc.59| |.loc.60| |.loc.61| |.loc.62| |J_15| |H_0| |F_15|) (not (and .loc.62 (and (not .loc.61) (and .loc.59 (not .loc.60))))))))
(check-sat)
